&CONTROL
   tstress          = .true.
   tprnfor          = .true.
   disk_io          = 'none'
/
&SYSTEM
   ecutwfc          = 50
   nosym            = .true.
   occupations      = 'smearing'
   degauss          = 0.02
   smearing         = 'mv'
   input_dft        = 'BEEF-VDW'
   ntyp             = 4
   nat              = 42
   ibrav            = 0
/
&ELECTRONS
   electron_maxstep = 200
   mixing_mode      = 'local-TF'
/
&IONS
/
&CELL
/

ATOMIC_SPECIES
Cu 63.546 Cu_ONCV_PBE-1.2.upf,
C 12.011 C_ONCV_PBE-1.2.upf,
O 15.999 O_ONCV_PBE-1.2.upf,
H 1.008 H_ONCV_PBE-1.2.upf

K_POINTS automatic
5 5 1  0 0 0

CELL_PARAMETERS angstrom
7.77786070929072 0.00000000000000 0.00000000000000
3.88893035464536 6.73582496134262 0.00000000000000
0.00000000000000 0.00000000000000 32.35059667606797

ATOMIC_POSITIONS angstrom
Cu 0.0000000000 0.0000000000 13.0000000000   0 0 0
Cu 2.5926202364 0.0000000000 13.0000000000   0 0 0
Cu 5.1852404729 0.0000000000 13.0000000000   0 0 0
Cu 1.2963101182 2.2452749871 13.0000000000   0 0 0
Cu 3.8889303546 2.2452749871 13.0000000000   0 0 0
Cu 6.4815505911 2.2452749871 13.0000000000   0 0 0
Cu 2.5926202364 4.4905499742 13.0000000000   0 0 0
Cu 5.1852404729 4.4905499742 13.0000000000   0 0 0
Cu 7.7778607093 4.4905499742 13.0000000000   0 0 0
Cu 1.2963101182 0.7484249957 15.1168655587   0 0 0
Cu 3.8889303546 0.7484249957 15.1168655587   0 0 0
Cu 6.4815505911 0.7484249957 15.1168655587   0 0 0
Cu 2.5926202364 2.9936999828 15.1168655587   0 0 0
Cu 5.1852404729 2.9936999828 15.1168655587   0 0 0
Cu 7.7778607093 2.9936999828 15.1168655587   0 0 0
Cu 3.8889303546 5.2389749699 15.1168655587   0 0 0
Cu 6.4815505911 5.2389749699 15.1168655587   0 0 0
Cu 9.0741708275 5.2389749699 15.1168655587   0 0 0
Cu 0.0006533762 1.4967808783 17.3525987135  
Cu 2.5940734992 1.4981964265 17.3556307437  
Cu 5.1853763211 1.4973489249 17.3550141207  
Cu 1.2943770593 3.7402844630 17.3552668472  
Cu 3.8883524058 3.7413739303 17.3582399036  
Cu 6.4806785938 3.7414131096 17.3515871620  
Cu 2.5952848473 5.9905604278 17.3513702311  
Cu 5.1844856410 5.9858728896 17.3485074515  
Cu 7.7803369069 5.9888153122 17.3503949444  
Cu -0.0010619230 -0.0021334943 19.5884694136  
Cu 2.5941376523 -0.0019516848 19.5747455416  
Cu 5.1842080709 -0.0038091762 19.5749826530  
Cu 1.2953060255 2.2480272167 19.5849610900  
Cu 3.8894518588 2.2454336866 19.6015215178  
Cu 6.4821696492 2.2444060219 19.5801085246  
Cu 2.5912791392 4.4946797380 19.5834080668  
Cu 5.1875737569 4.4900847132 19.5858448688  
Cu 7.7751279255 4.4927576979 19.5859246095  
C 3.4018621046 1.0156531620 23.1056467374  
O 3.9447970974 2.2501910528 22.6149430034  
H 3.9447457995 0.2217844450 22.6035076823  
H 3.3913410813 2.9668311850 22.9335874008  
H 3.5441129361 0.9173742589 24.1817020932  
H 2.3430591975 0.9168706509 22.8662133297  

