&CONTROL
   tstress          = .true.
   tprnfor          = .true.
   disk_io          = 'none'
/
&SYSTEM
   ecutwfc          = 30
   nosym            = .true.
   occupations      = 'smearing'
   degauss          = 0.01
   smearing         = 'mv'
   input_dft        = 'BEEF-VDW'
   ntyp             = 4
   nat              = 42
   ibrav            = 0
/
&ELECTRONS
   electron_maxstep = 200
   mixing_mode      = 'local-TF'
/
&IONS
/
&CELL
/

ATOMIC_SPECIES
Cu 63.546 Cu_ONCV_PBE-1.2.upf,
C 12.011 C_ONCV_PBE-1.2.upf,
H 1.008 H_ONCV_PBE-1.2.upf
O 15.999 O_ONCV_PBE-1.2.upf,

K_POINTS automatic
4 4 1  0 0 0

CELL_PARAMETERS angstrom
7.77786070929072 0.00000000000000 0.00000000000000
3.88893035464536 6.73582496134262 0.00000000000000
0.00000000000000 0.00000000000000 32.35059667606797

ATOMIC_POSITIONS angstrom
Cu 0.0000000000 0.0000000000 13.0000000000   0 0 0
Cu 2.5926202364 0.0000000000 13.0000000000   0 0 0
Cu 5.1852404729 0.0000000000 13.0000000000   0 0 0
Cu 1.2963101182 2.2452749871 13.0000000000   0 0 0
Cu 3.8889303546 2.2452749871 13.0000000000   0 0 0
Cu 6.4815505911 2.2452749871 13.0000000000   0 0 0
Cu 2.5926202364 4.4905499742 13.0000000000   0 0 0
Cu 5.1852404729 4.4905499742 13.0000000000   0 0 0
Cu 7.7778607093 4.4905499742 13.0000000000   0 0 0
Cu 1.2963101182 0.7484249957 15.1168655587   0 0 0
Cu 3.8889303546 0.7484249957 15.1168655587   0 0 0
Cu 6.4815505911 0.7484249957 15.1168655587   0 0 0
Cu 2.5926202364 2.9936999828 15.1168655587   0 0 0
Cu 5.1852404729 2.9936999828 15.1168655587   0 0 0
Cu 7.7778607093 2.9936999828 15.1168655587   0 0 0
Cu 3.8889303546 5.2389749699 15.1168655587   0 0 0
Cu 6.4815505911 5.2389749699 15.1168655587   0 0 0
Cu 9.0741708275 5.2389749699 15.1168655587   0 0 0
Cu -0.0667885352 1.4038782312 16.9500502789  
Cu 2.8283758583 1.6128733513 16.9318248428  
Cu 5.2406963648 1.4372775965 16.9337923255  
Cu 1.2708146827 3.2592997278 17.0259486183  
Cu 3.4416212104 3.9148132848 17.1021382728  
Cu 6.9744921003 4.2009620095 16.9714225435  
Cu 2.6962901766 6.2291774636 17.2388212612  
Cu 5.0108386093 6.1045430647 16.9341097964  
Cu 7.7409466318 6.3765613667 17.5383964750  
Cu -0.1279664798 -0.2270160613 19.3633810329  
Cu 2.6142377089 0.0050281305 19.3022228444  
Cu 5.4237846697 -0.2249850452 19.2871504938  
Cu 1.5155376030 2.5121247055 19.1819242010  
Cu 4.1709559152 2.3397204945 18.7186731654  
Cu 6.5161548849 2.2540847688 18.7047552685  
Cu 2.6727845202 4.4986296441 19.3486805997  
Cu 5.4550807425 4.2249467079 19.1017667346  
Cu 8.2201861870 4.5466555336 18.8482851193  
C 4.5173812030 3.1914767319 22.6651898682  
H 3.8295954870 4.0395025993 22.6093540589  
H 4.5486068306 2.5878041373 23.5748034860  
H 5.1158351821 2.9343291190 21.7981630984  
O 1.2796578811 0.6336000507 20.6447960867  
H 1.4798072738 0.1880841630 21.5431090204  

