&CONTROL
   tstress          = .true.
   tprnfor          = .true.
   disk_io          = 'none'
/
&SYSTEM
   ecutwfc          = 50
   nosym            = .true.
   occupations      = 'smearing'
   degauss          = 0.02
   smearing         = 'mv'
   input_dft        = 'BEEF-VDW'
   ntyp             = 4
   nat              = 42
   ibrav            = 0
/
&ELECTRONS
   electron_maxstep = 200
   mixing_mode      = 'local-TF'
/
&IONS
/
&CELL
/

ATOMIC_SPECIES
Cu 63.546 Cu_ONCV_PBE-1.2.upf,
C 12.011 C_ONCV_PBE-1.2.upf,
O 15.999 O_ONCV_PBE-1.2.upf,
H 1.008 H_ONCV_PBE-1.2.upf

K_POINTS automatic
5 5 1  0 0 0

CELL_PARAMETERS angstrom
7.77786070929072 0.00000000000000 0.00000000000000
3.88893035464536 6.73582496134262 0.00000000000000
0.00000000000000 0.00000000000000 32.35059667606797

ATOMIC_POSITIONS angstrom
Cu 0.0000000000 0.0000000000 13.0000000000   0 0 0
Cu 2.5926202364 0.0000000000 13.0000000000   0 0 0
Cu 5.1852404729 0.0000000000 13.0000000000   0 0 0
Cu 1.2963101182 2.2452749871 13.0000000000   0 0 0
Cu 3.8889303546 2.2452749871 13.0000000000   0 0 0
Cu 6.4815505911 2.2452749871 13.0000000000   0 0 0
Cu 2.5926202364 4.4905499742 13.0000000000   0 0 0
Cu 5.1852404729 4.4905499742 13.0000000000   0 0 0
Cu 7.7778607093 4.4905499742 13.0000000000   0 0 0
Cu 1.2963101182 0.7484249957 15.1168655587   0 0 0
Cu 3.8889303546 0.7484249957 15.1168655587   0 0 0
Cu 6.4815505911 0.7484249957 15.1168655587   0 0 0
Cu 2.5926202364 2.9936999828 15.1168655587   0 0 0
Cu 5.1852404729 2.9936999828 15.1168655587   0 0 0
Cu 7.7778607093 2.9936999828 15.1168655587   0 0 0
Cu 3.8889303546 5.2389749699 15.1168655587   0 0 0
Cu 6.4815505911 5.2389749699 15.1168655587   0 0 0
Cu 9.0741708275 5.2389749699 15.1168655587   0 0 0
Cu -0.0025519536 1.4961148625 17.3413172711  
Cu 2.5925991939 1.5007131294 17.3508504160  
Cu 5.1823122336 1.4989131558 17.3595438579  
Cu 1.2987348840 3.7419817232 17.3421875955  
Cu 3.8902987528 3.7398024946 17.3582295475  
Cu 6.4795490626 3.7410768436 17.3483558602  
Cu 2.5999866403 5.9856180515 17.3370010614  
Cu 5.1807653708 5.9867188982 17.3370799794  
Cu 7.7796538936 5.9861572464 17.3400593396  
Cu -0.0019458398 0.0002601419 19.5791186505  
Cu 2.5861515753 -0.0090607723 19.5313277908  
Cu 5.1988458515 -0.0232019496 19.5468253832  
Cu 1.2862522823 2.2474827952 19.5607665054  
Cu 3.8900445643 2.2428185737 19.6066644847  
Cu 6.4910611136 2.2446903565 19.5759654839  
Cu 2.5892022373 4.4991016679 19.5682043436  
Cu 5.1877691741 4.4996590606 19.5703296817  
Cu 7.7769966780 4.4895466199 19.5761688011  
C 3.3665478447 1.1583973526 22.9225803660  
O 3.9041362565 2.2609492962 22.1720824618  
H 3.9858712786 0.2982608963 22.6908840701  
H 3.3392101420 3.0275182827 22.3066094082  
H 3.4167082789 1.3634150878 23.9902613382  
H 2.3388267681 0.9391475684 22.6340839784  

