&CONTROL
   tstress          = .true.
   tprnfor          = .true.
   disk_io          = 'none'
/
&SYSTEM
   ecutwfc          = 50
   nosym            = .true.
   occupations      = 'smearing'
   degauss          = 0.01
   smearing         = 'mv'
   input_dft        = 'BEEF-VDW'
   nspin            = 2
   starting_magnetization(1) = 0.0
   starting_magnetization(2) = 1.0
   starting_magnetization(3) = 0.0
   starting_magnetization(4) = 0.5
   starting_magnetization(5) = 0.5
   ntyp             = 5
   nat              = 42
   ibrav            = 0
/
&ELECTRONS
   electron_maxstep = 200
   mixing_mode      = 'local-TF'
/
&IONS
/
&CELL
/

ATOMIC_SPECIES
Cu  63.546 Cu_ONCV_PBE-1.2.upf,
C  12.011 C_ONCV_PBE-1.2.upf,
H  1.008 H_ONCV_PBE-1.2.upf
O  15.999 O_ONCV_PBE-1.2.upf,
H1 1.008 H_ONCV_PBE-1.2.upf

K_POINTS automatic
5 5 1  0 0 0

CELL_PARAMETERS angstrom
7.77786070929072 0.00000000000000 0.00000000000000
3.88893035464536 6.73582496134262 0.00000000000000
0.00000000000000 0.00000000000000 32.35059667606797

ATOMIC_POSITIONS angstrom
Cu  0.0000000000 0.0000000000 13.0000000000   0 0 0
Cu  2.5926202364 0.0000000000 13.0000000000   0 0 0
Cu  5.1852404729 0.0000000000 13.0000000000   0 0 0
Cu  1.2963101182 2.2452749871 13.0000000000   0 0 0
Cu  3.8889303546 2.2452749871 13.0000000000   0 0 0
Cu  6.4815505911 2.2452749871 13.0000000000   0 0 0
Cu  2.5926202364 4.4905499742 13.0000000000   0 0 0
Cu  5.1852404729 4.4905499742 13.0000000000   0 0 0
Cu  7.7778607093 4.4905499742 13.0000000000   0 0 0
Cu  1.2963101182 0.7484249957 15.1168655587   0 0 0
Cu  3.8889303546 0.7484249957 15.1168655587   0 0 0
Cu  6.4815505911 0.7484249957 15.1168655587   0 0 0
Cu  2.5926202364 2.9936999828 15.1168655587   0 0 0
Cu  5.1852404729 2.9936999828 15.1168655587   0 0 0
Cu  7.7778607093 2.9936999828 15.1168655587   0 0 0
Cu  3.8889303546 5.2389749699 15.1168655587   0 0 0
Cu  6.4815505911 5.2389749699 15.1168655587   0 0 0
Cu  9.0741708275 5.2389749699 15.1168655587   0 0 0
Cu  0.0087187269 1.4848841935 17.3502365516  
Cu  2.6026695061 1.4868705693 17.3500629994  
Cu  5.1910092569 1.3934171065 17.3566360802  
Cu  1.2923084915 3.7349283959 17.3400890099  
Cu  3.8324391414 3.7480595279 17.3455798465  
Cu  6.4596709878 3.7199449855 17.2595955533  
Cu  2.5955575805 5.9821801419 17.3303679250  
Cu  5.1774519061 5.9817507981 17.3504551767  
Cu  7.7779122528 5.9749184077 17.3551672363  
Cu  -0.0837147510 -0.0223223900 19.5176006576  
Cu  2.6880856634 -0.0906910844 19.5314616112  
Cu  5.2595556233 -0.1162199838 19.6218115595  
Cu  1.3084743559 2.3860573293 19.5362025245  
Cu  3.9991771990 2.2608393229 19.5063858099  
Cu  6.4096223837 2.3177068727 19.4977264645  
Cu  2.5159043048 4.5189408777 19.5932913893  
Cu  5.1722718831 4.3856203813 19.4995864475  
Cu  7.6255858408 4.4120909714 19.4903163946  
C  9.5430480496 5.5480303860 21.4332813268  
H  9.5773762208 6.5425655496 21.8855501328  
H  10.4147853170 5.0184693571 21.8309746356  
H  8.6532167301 5.0421254165 21.8069216097  
O  1.3260124316 0.7742455099 20.8083288387  
H1 1.3330784642 0.7736295944 21.7703717646  

