&CONTROL
   tstress          = .true.
   tprnfor          = .true.
   disk_io          = 'none'
/
&SYSTEM
   ecutwfc          = 50
   nosym            = .true.
   occupations      = 'smearing'
   degauss          = 0.01
   smearing         = 'mv'
   input_dft        = 'BEEF-VDW'
   ntyp             = 4
   nat              = 42
   ibrav            = 0
/
&ELECTRONS
   electron_maxstep = 200
   mixing_mode      = 'local-TF'
/
&IONS
/
&CELL
/

ATOMIC_SPECIES
Cu 63.546 Cu_ONCV_PBE-1.2.upf,
C 12.011 C_ONCV_PBE-1.2.upf,
H 1.008 H_ONCV_PBE-1.2.upf
O 15.999 O_ONCV_PBE-1.2.upf,

K_POINTS automatic
5 5 1  0 0 0

CELL_PARAMETERS angstrom
7.77786070929072 0.00000000000000 0.00000000000000
3.88893035464536 6.73582496134262 0.00000000000000
0.00000000000000 0.00000000000000 32.35059667606797

ATOMIC_POSITIONS angstrom
Cu 0.3142931181 0.1035487772 12.9983597666 
Cu 2.5926202364 0.0000000000 13.0000000000  0 0 0
Cu 5.1852404729 0.0000000000 13.0000000000  0 0 0
Cu 1.2963101182 2.2452749871 13.0000000000  0 0 0
Cu 3.8889303546 2.2452749871 13.0000000000  0 0 0
Cu 6.4815505911 2.2452749871 13.0000000000  0 0 0
Cu 2.5926202364 4.4905499742 13.0000000000  0 0 0
Cu 5.1852404729 4.4905499742 13.0000000000  0 0 0
Cu 7.7778607093 4.4905499742 13.0000000000  0 0 0
Cu 1.2963101182 0.7484249957 15.1168655587  0 0 0
Cu 3.8889303546 0.7484249957 15.1168655587  0 0 0
Cu 6.4815505911 0.7484249957 15.1168655587  0 0 0
Cu 2.5926202364 2.9936999828 15.1168655587  0 0 0
Cu 5.1852404729 2.9936999828 15.1168655587  0 0 0
Cu 7.7778607093 2.9936999828 15.1168655587  0 0 0
Cu 3.8889303546 5.2389749699 15.1168655587  0 0 0
Cu 6.4815505911 5.2389749699 15.1168655587  0 0 0
Cu 9.0741708275 5.2389749699 15.1168655587  0 0 0
Cu 0.0119945492 1.4901086753 17.3678394361 
Cu 2.5805732325 1.4954544723 17.3371560986 
Cu 5.1961677751 1.4956202779 17.2945362757 
Cu 1.2999985302 3.7457185672 17.3604011466 
Cu 3.9945820740 3.7387271045 17.3887372437 
Cu 6.4853234571 3.7581387560 17.2946798122 
Cu 2.6796291467 5.9941746149 17.3280829945 
Cu 5.2324233356 5.9571523617 17.4133911173 
Cu 7.7738898796 5.9914122427 17.3376835334 
Cu -0.0591888167 -0.0840173399 19.6075124624 
Cu 2.7803602322 0.0018267824 19.5925019420 
Cu 5.1962920244 0.0176655603 19.5132947438 
Cu 1.2954723350 2.3737376303 19.5525954568 
Cu 3.9409168416 2.3429027645 19.4120450276 
Cu 6.3725117840 2.2392570009 19.3965928984 
Cu 2.6350431553 4.5750589481 19.5070858915 
Cu 5.3407347615 4.3972864583 19.7062401756 
Cu 7.7367658220 4.5450758759 19.5480333917 
C 6.2972614216 4.1562024312 21.5481194234 
H 6.0678239762 5.1004256073 22.0318441146 
H 7.3362822341 3.9090653953 21.7712516812 
H 5.6858466232 3.3667847043 21.9827200003 
O 1.3093271599 0.7953373470 20.8622477537 
H 1.2877137080 0.8062315620 21.8220674310 

