&CONTROL
   tstress          = .true.
   tprnfor          = .true.
   disk_io          = 'none'
/
&SYSTEM
   ecutwfc          = 30
   nosym            = .true.
   occupations      = 'smearing'
   degauss          = 0.01
   smearing         = 'mv'
   input_dft        = 'BEEF-VDW'
   ntyp             = 4
   nat              = 42
   ibrav            = 0
/
&ELECTRONS
   electron_maxstep = 200
   mixing_mode      = 'local-TF'
/
&IONS
/
&CELL
/

ATOMIC_SPECIES
Cu 63.546 Cu_ONCV_PBE-1.2.upf,
C 12.011 C_ONCV_PBE-1.2.upf,
H 1.008 H_ONCV_PBE-1.2.upf
O 15.999 O_ONCV_PBE-1.2.upf,

K_POINTS automatic
4 4 1  0 0 0

CELL_PARAMETERS angstrom
7.77786070929072 0.00000000000000 0.00000000000000
3.88893035464536 6.73582496134262 0.00000000000000
0.00000000000000 0.00000000000000 32.35059667606797

ATOMIC_POSITIONS angstrom
Cu 0.3447156944 -0.0612044835 13.0871844657  
Cu 2.5926202364 0.0000000000 13.0000000000   0 0 0
Cu 5.1852404729 0.0000000000 13.0000000000   0 0 0
Cu 1.2963101182 2.2452749871 13.0000000000   0 0 0
Cu 3.8889303546 2.2452749871 13.0000000000   0 0 0
Cu 6.4815505911 2.2452749871 13.0000000000   0 0 0
Cu 2.5926202364 4.4905499742 13.0000000000   0 0 0
Cu 5.1852404729 4.4905499742 13.0000000000   0 0 0
Cu 7.7778607093 4.4905499742 13.0000000000   0 0 0
Cu 1.2963101182 0.7484249957 15.1168655587   0 0 0
Cu 3.8889303546 0.7484249957 15.1168655587   0 0 0
Cu 6.4815505911 0.7484249957 15.1168655587   0 0 0
Cu 2.5926202364 2.9936999828 15.1168655587   0 0 0
Cu 5.1852404729 2.9936999828 15.1168655587   0 0 0
Cu 7.7778607093 2.9936999828 15.1168655587   0 0 0
Cu 3.8889303546 5.2389749699 15.1168655587   0 0 0
Cu 6.4815505911 5.2389749699 15.1168655587   0 0 0
Cu 9.0741708275 5.2389749699 15.1168655587   0 0 0
Cu -0.2869890802 1.3273138517 17.2066889420  
Cu 2.9170279486 1.6582591450 17.0166827009  
Cu 5.1500250252 0.9852829048 17.0589778839  
Cu 1.0520559234 3.7843845684 17.5835539250  
Cu 3.3667181280 3.8588474903 17.2624392238  
Cu 6.6301917887 3.8751982216 16.9401864781  
Cu 2.7185457384 5.9948901358 16.9022773358  
Cu 5.0243941167 5.4973176993 17.0406473517  
Cu 7.7611076864 5.8332241260 17.7637175082  
Cu -0.3598087220 -0.2608852052 19.6559723990  
Cu 2.6840903919 -0.1605053939 19.6586287623  
Cu 5.0630422918 -0.2517728767 19.6674933157  
Cu 1.2852860610 2.4193327770 19.3860165459  
Cu 4.0418803728 2.2728588735 19.6524595494  
Cu 6.3597909621 2.2567953212 19.6718895396  
Cu 2.3575323780 4.4930215294 19.3484728505  
Cu 5.1955096038 4.2197024355 19.6531856002  
Cu 7.8064814745 4.4757007252 19.6473095116  
C 2.9637449272 2.3263922197 22.6676693642  
H 2.5730890239 3.3575489626 22.6190323704  
H 3.2061779621 2.0844501480 23.7182881595  
H 3.9165830500 2.3033363170 22.0904553509  
O 1.9465845753 1.4847463850 22.1191489510  
H 2.1586518783 0.5269833622 22.3697863704  

